15
1 0 1
3 1 4
4 1 5
4 3 2
5 0 2
5 2 1
5 4 10
6 3 10
6 4 10
7 0 3
7 3 7
7 4 9
7 5 2
7 6 10
8 2 4
8 4 2
8 5 8
8 6 10
8 7 7
9 0 9
9 1 1
9 3 5
9 4 5
9 5 7
9 6 9
9 8 6
10 0 7
10 1 6
10 2 6
10 3 6
10 4 2
10 5 2
10 7 5
10 8 10
10 9 10
11 1 7
11 3 9
11 6 7
11 9 8
11 10 2
12 1 9
12 3 4
12 4 4
12 5 2
12 8 5
12 9 7
13 0 4
13 1 10
13 4 8
13 5 4
13 7 6
13 8 6
13 9 3
13 10 4
13 11 9
14 2 5
14 6 1
14 7 1
14 8 9
14 11 9
14 12 2
